\ Model vert
\ LP format - for model browsing. Use MPS format to capture full model detail.
Minimize
  31535.6275603785 S_coef + 258.4758891600042 Constant + [
   1.923769e+06 S_coef ^2 ] / 2 
Subject To
Bounds
 -1000 <= S_coef <= 0
 Constant = 1
End
